NAME: exported_route
TYPE: TSP
DIMENSION: 33
EDGE_WEIGHT_TYPE: EUC_2D
NODE_COORD_SECTION
1 39.650143 27.888039 
2 39.649936 27.889520 
3 39.649887 27.889756 
4 39.649465 27.889928 
5 39.649424 27.890271 
6 39.649986 27.888308 
7 39.648879 27.888104 
8 39.649251 27.891033 
9 39.649928 27.891526 
10 39.649341 27.886344 
11 39.648862 27.886580 
12 39.649606 27.885701 
13 39.649862 27.885904 
14 39.650056 27.886264 
15 39.651043 27.883855 
16 39.651051 27.887149 
17 39.651175 27.886001 
18 39.651101 27.886376 
19 39.650944 27.886634 
20 39.651159 27.887664 
21 39.651795 27.886806 
22 39.651803 27.886205 
23 39.651283 27.885121 
24 39.651431 27.883566 
25 39.653579 27.885293 
26 39.652679 27.885068 
27 39.652786 27.885572 
28 39.653117 27.886012 
29 39.651845 27.888329 
30 39.652035 27.888565 
31 39.653142 27.887911 
32 39.651386 27.887771 
33 39.651456 27.889161 
EOF
